(set-logic HORN)
(declare-datatypes ((Bool_0 0)) (((false_0 ) (true_0 ))))
(declare-fun diseqBool_0 (Bool_0 Bool_0) Bool)
(declare-datatypes ((Nat_0 0)) (((Z_0 ) (S_0 (projS_0 Nat_0)))))
(declare-fun diseqNat_0 (Nat_0 Nat_0) Bool)
(declare-datatypes ((list_0 0)) (((nil_0 ) (cons_0 (head_0 Nat_0) (tail_0 list_0)))))
(declare-fun len_0 (Nat_0 list_0) Bool)
(declare-fun x_1 (Bool_0 Nat_0 Nat_0) Bool)
(declare-fun insort_0 (list_0 Nat_0 list_0) Bool)
(declare-fun sort_0 (list_0 list_0) Bool)
(assert (diseqBool_0 false_0 true_0))
(assert (diseqBool_0 true_0 false_0))
(assert (forall ((x_33 Nat_0))
	(diseqNat_0 Z_0 (S_0 x_33))))
(assert (forall ((x_34 Nat_0))
	(diseqNat_0 (S_0 x_34) Z_0)))
(assert (forall ((x_35 Nat_0) (x_36 Nat_0))
	(=> (diseqNat_0 x_35 x_36) (diseqNat_0 (S_0 x_35) (S_0 x_36)))))
(assert (forall ((x_7 Nat_0) (y_0 Nat_0) (xs_0 list_0))
	(=> (len_0 x_7 xs_0) (len_0 (S_0 x_7) (cons_0 y_0 xs_0)))))
(assert (len_0 Z_0 nil_0))
(assert (forall ((x_10 Bool_0) (x_3 Nat_0) (z_1 Nat_0))
	(=> (x_1 x_10 z_1 x_3) (x_1 x_10 (S_0 z_1) (S_0 x_3)))))
(assert (forall ((z_1 Nat_0))
	(x_1 false_0 (S_0 z_1) Z_0)))
(assert (forall ((y_1 Nat_0))
	(x_1 true_0 Z_0 y_1)))
(assert (forall ((z_2 Nat_0) (xs_1 list_0) (x_4 Nat_0))
	(=> (x_1 true_0 x_4 z_2) (insort_0 (cons_0 x_4 (cons_0 z_2 xs_1)) x_4 (cons_0 z_2 xs_1)))))
(assert (forall ((x_17 list_0) (x_15 Bool_0) (z_2 Nat_0) (xs_1 list_0) (x_4 Nat_0))
	(=> (and (diseqBool_0 x_15 true_0) (insort_0 x_17 x_4 xs_1) (x_1 x_15 x_4 z_2)) (insort_0 (cons_0 z_2 x_17) x_4 (cons_0 z_2 xs_1)))))
(assert (forall ((x_4 Nat_0))
	(insort_0 (cons_0 x_4 nil_0) x_4 nil_0)))
(assert (forall ((x_19 list_0) (x_20 list_0) (y_3 Nat_0) (xs_2 list_0))
	(=> (and (sort_0 x_20 xs_2) (insort_0 x_19 y_3 x_20)) (sort_0 x_19 (cons_0 y_3 xs_2)))))
(assert (sort_0 nil_0 nil_0))
(assert (forall ((x_23 list_0) (x_24 Nat_0) (x_25 Nat_0) (xs_3 list_0))
	(=> (and (diseqNat_0 x_24 x_25) (sort_0 x_23 xs_3) (len_0 x_24 x_23) (len_0 x_25 xs_3)) false)))
(check-sat)
(get-model)
